c Generated map
c Size: 9 * 9, weights in range: 1 to 10, walls: True, with ratio 0.1
c dim 6 of 7
c
p sp 81 121
c graph contains 81 nodes and 121 arcs
c
a 1 10 6
a 10 1 6
a 1 2 4
a 2 1 4
a 2 11 7
a 11 2 7
a 4 5 3
a 5 4 3
a 5 14 4
a 14 5 4
a 5 6 7
a 6 5 7
a 6 15 2
a 15 6 2
a 8 17 8
a 17 8 8
a 8 9 7
a 9 8 7
a 9 18 4
a 18 9 4
a 10 19 4
a 19 10 4
a 10 11 5
a 11 10 5
a 11 20 9
a 20 11 9
a 11 12 2
a 12 11 2
a 12 21 7
a 21 12 7
a 14 23 9
a 23 14 9
a 14 15 1
a 15 14 1
a 15 16 3
a 16 15 3
a 16 25 7
a 25 16 7
a 16 17 9
a 17 16 9
a 17 26 9
a 26 17 9
a 17 18 2
a 18 17 2
a 18 27 1
a 27 18 1
a 19 28 2
a 28 19 2
a 19 20 9
a 20 19 9
a 20 29 8
a 29 20 8
a 20 21 4
a 21 20 4
a 21 30 1
a 30 21 1
a 21 22 4
a 22 21 4
a 22 31 2
a 31 22 2
a 22 23 4
a 23 22 4
a 23 32 1
a 32 23 1
a 25 34 10
a 34 25 10
a 25 26 10
a 26 25 10
a 26 35 8
a 35 26 8
a 26 27 7
a 27 26 7
a 27 36 9
a 36 27 9
a 28 37 10
a 37 28 10
a 28 29 7
a 29 28 7
a 29 38 9
a 38 29 9
a 29 30 8
a 30 29 8
a 30 39 5
a 39 30 5
a 30 31 1
a 31 30 1
a 31 40 5
a 40 31 5
a 31 32 2
a 32 31 2
a 32 41 2
a 41 32 2
a 32 33 1
a 33 32 1
a 33 42 5
a 42 33 5
a 33 34 10
a 34 33 10
a 34 43 4
a 43 34 4
a 34 35 10
a 35 34 10
a 35 44 6
a 44 35 6
a 35 36 8
a 36 35 8
a 36 45 3
a 45 36 3
a 37 46 6
a 46 37 6
a 37 38 2
a 38 37 2
a 38 47 3
a 47 38 3
a 38 39 9
a 39 38 9
a 39 48 10
a 48 39 10
a 39 40 2
a 40 39 2
a 40 49 2
a 49 40 2
a 40 41 2
a 41 40 2
a 41 50 5
a 50 41 5
a 41 42 7
a 42 41 7
a 42 51 10
a 51 42 10
a 42 43 4
a 43 42 4
a 43 52 8
a 52 43 8
a 43 44 2
a 44 43 2
a 44 53 5
a 53 44 5
a 44 45 1
a 45 44 1
a 45 54 1
a 54 45 1
a 46 55 7
a 55 46 7
a 46 47 5
a 47 46 5
a 47 56 8
a 56 47 8
a 47 48 2
a 48 47 2
a 48 57 3
a 57 48 3
a 48 49 4
a 49 48 4
a 49 58 5
a 58 49 5
a 49 50 3
a 50 49 3
a 50 59 5
a 59 50 5
a 50 51 8
a 51 50 8
a 51 60 5
a 60 51 5
a 51 52 3
a 52 51 3
a 52 61 4
a 61 52 4
a 52 53 4
a 53 52 4
a 53 62 7
a 62 53 7
a 53 54 5
a 54 53 5
a 54 63 6
a 63 54 6
a 55 64 10
a 64 55 10
a 55 56 5
a 56 55 5
a 56 57 7
a 57 56 7
a 57 66 1
a 66 57 1
a 57 58 1
a 58 57 1
a 58 67 8
a 67 58 8
a 58 59 1
a 59 58 1
a 59 68 8
a 68 59 8
a 59 60 2
a 60 59 2
a 60 69 10
a 69 60 10
a 60 61 4
a 61 60 4
a 61 70 7
a 70 61 7
a 61 62 1
a 62 61 1
a 62 71 7
a 71 62 7
a 62 63 8
a 63 62 8
a 63 72 7
a 72 63 7
a 66 67 6
a 67 66 6
a 67 76 8
a 76 67 8
a 67 68 4
a 68 67 4
a 68 77 6
a 77 68 6
a 68 69 3
a 69 68 3
a 69 78 8
a 78 69 8
a 69 70 3
a 70 69 3
a 70 79 6
a 79 70 6
a 70 71 9
a 71 70 9
a 71 80 4
a 80 71 4
a 71 72 2
a 72 71 2
a 72 81 3
a 81 72 3
a 76 77 7
a 77 76 7
a 77 78 9
a 78 77 9
a 78 79 10
a 79 78 10
a 79 80 9
a 80 79 9
a 80 81 7
a 81 80 7
